<?xml version = "1.0" standalone="yes"?>
<!-- This file has been generated by DOcplex version 2.23.222  -->
<CPLEXSolution version="1.0">
 <header
   problemName="CVRP"
   objectiveValue="7538.12"
  />
 <variables>
  <variable name="x_0_1" index="0" value="1.00000"/>
  <variable name="x_0_5" index="4" value="1.00000"/>
  <variable name="x_0_6" index="5" value="1.00000"/>
  <variable name="x_0_9" index="8" value="1.00000"/>
  <variable name="x_0_10" index="9" value="1.00000"/>
  <variable name="x_0_12" index="11" value="1.00000"/>
  <variable name="x_1_7" index="18" value="1.00000"/>
  <variable name="x_2_0" index="24" value="1.00000"/>
  <variable name="x_3_0" index="36" value="1.00000"/>
  <variable name="x_4_0" index="48" value="1.00000"/>
  <variable name="x_5_8" index="67" value="1.00000"/>
  <variable name="x_6_0" index="72" value="1.00000"/>
  <variable name="x_7_2" index="86" value="1.00000"/>
  <variable name="x_8_0" index="96" value="1.00000"/>
  <variable name="x_9_11" index="118" value="1.00000"/>
  <variable name="x_10_4" index="124" value="1.00000"/>
  <variable name="x_11_0" index="132" value="1.00000"/>
  <variable name="x_12_3" index="147" value="1.00000"/>
  <variable name="u_1" index="156" value="6.00000"/>
  <variable name="u_2" index="157" value="27.00000"/>
  <variable name="u_3" index="158" value="27.00000"/>
  <variable name="u_4" index="159" value="26.00000"/>
  <variable name="u_5" index="160" value="13.00000"/>
  <variable name="u_6" index="161" value="11.00000"/>
  <variable name="u_7" index="162" value="16.00000"/>
  <variable name="u_8" index="163" value="27.00000"/>
  <variable name="u_9" index="164" value="3.00000"/>
  <variable name="u_10" index="165" value="22.00000"/>
  <variable name="u_11" index="166" value="27.00000"/>
  <variable name="u_12" index="167" value="4.00000"/>
 </variables>
</CPLEXSolution>
